benchmark/results/graph__10-1000-0.10-04_1/graph__10-1000-0.10-04_1_QuintonOs_Benders_sub.lp
\ This file has been generated by DOcplex
\ ENCODING=ISO-8859-1
\Problem name: Quinton Bounded Benders_dual_sub

Minimize
 obj: 0.000999000999 pi_nr_a0 + 0.000942507069 pi_nr_a1
      + 0.001934235977 pi_nr_a2 + 0.001272264631 pi_nr_a3
      + 0.001626016260 pi_nr_a4 + 0.001730103806 pi_nr_a5
      + 0.000942507069 pi_nr_a6 + 0.000811688312 pi_nr_a7
      + 0.000831255195 pi_nr_a8 + 0.001562500000 pi_nr_a9 + pi_p_a0_a1
      + pi_p_a1_a2 + pi_p_a9_a5 + pi_p_a7_a7 + pi_p_a6_a2
      + 1306 pi_d_a0_a1_proc_2 + 2598 pi_d_a0_a1_proc_3 + 1306 pi_d_a0_a1_proc_0
      + 1279 pi_d_a1_a0_proc_2 + 2571 pi_d_a1_a0_proc_3 + 1279 pi_d_a1_a0_proc_0
      + 2585 pi_d_a0_a2_proc_2 + 1293 pi_d_a0_a2_proc_3 + 1293 pi_d_a0_a2_proc_0
      + 2584 pi_d_a2_a0_proc_2 + 1292 pi_d_a2_a0_proc_3 + 1292 pi_d_a2_a0_proc_0
      + 2571 pi_d_a0_a3_proc_2 + 2571 pi_d_a0_a3_proc_3 + 1279 pi_d_a0_a3_proc_0
      + 2598 pi_d_a3_a0_proc_2 + 2598 pi_d_a3_a0_proc_3 + 1306 pi_d_a3_a0_proc_0
      + 2598 pi_d_a0_a4_proc_2 + 1306 pi_d_a0_a4_proc_0 + 2571 pi_d_a4_a0_proc_2
      + 1279 pi_d_a4_a0_proc_0 + 2598 pi_d_a0_a5_proc_2 + 1306 pi_d_a0_a5_proc_3
      + 1306 pi_d_a0_a5_proc_0 + 2571 pi_d_a5_a0_proc_2 + 1279 pi_d_a5_a0_proc_3
      + 1279 pi_d_a5_a0_proc_0 + 2598 pi_d_a0_a6_proc_2 + 1306 pi_d_a0_a6_proc_3
      + 1306 pi_d_a0_a6_proc_0 + 2571 pi_d_a6_a0_proc_2 + 1279 pi_d_a6_a0_proc_3
      + 1279 pi_d_a6_a0_proc_0 + 2598 pi_d_a0_a7_proc_3 + 14 pi_d_a0_a7_proc_0
      + 2571 pi_d_a7_a0_proc_3 - 13 pi_d_a7_a0_proc_0 + 1306 pi_d_a0_a8_proc_2
      + 1306 pi_d_a0_a8_proc_0 + 1279 pi_d_a8_a0_proc_2 + 1279 pi_d_a8_a0_proc_0
      + 2598 pi_d_a0_a9_proc_2 + 2598 pi_d_a0_a9_proc_3 + 1306 pi_d_a0_a9_proc_0
      + 2571 pi_d_a9_a0_proc_2 + 2571 pi_d_a9_a0_proc_3 + 1279 pi_d_a9_a0_proc_0
      + 1306 pi_d_a1_a2_proc_2 + 1306 pi_d_a1_a2_proc_3 + 2598 pi_d_a1_a2_proc_0
      + 2598 pi_d_a1_a2_proc_1 + 1279 pi_d_a2_a1_proc_2 + 1279 pi_d_a2_a1_proc_3
      + 2571 pi_d_a2_a1_proc_0 + 2571 pi_d_a2_a1_proc_1 + 1279 pi_d_a1_a3_proc_2
      + 2571 pi_d_a1_a3_proc_3 + 2571 pi_d_a1_a3_proc_0 + 1279 pi_d_a1_a3_proc_1
      + 1306 pi_d_a3_a1_proc_2 + 2598 pi_d_a3_a1_proc_3 + 2598 pi_d_a3_a1_proc_0
      + 1306 pi_d_a3_a1_proc_1 + 1306 pi_d_a1_a4_proc_2 + 2598 pi_d_a1_a4_proc_0
      + 1306 pi_d_a1_a4_proc_1 + 1279 pi_d_a4_a1_proc_2 + 2571 pi_d_a4_a1_proc_0
      + 1279 pi_d_a4_a1_proc_1 + 1306 pi_d_a1_a5_proc_2 + 1306 pi_d_a1_a5_proc_3
      + 2598 pi_d_a1_a5_proc_0 + 2598 pi_d_a1_a5_proc_1 + 1279 pi_d_a5_a1_proc_2
      + 1279 pi_d_a5_a1_proc_3 + 2571 pi_d_a5_a1_proc_0 + 2571 pi_d_a5_a1_proc_1
      + 1306 pi_d_a1_a6_proc_2 + 1306 pi_d_a1_a6_proc_3 + 2598 pi_d_a1_a6_proc_0
      + 2598 pi_d_a1_a6_proc_1 + 1279 pi_d_a6_a1_proc_2 + 1279 pi_d_a6_a1_proc_3
      + 2571 pi_d_a6_a1_proc_0 + 2571 pi_d_a6_a1_proc_1 + 2571 pi_d_a1_a7_proc_3
      + 1279 pi_d_a1_a7_proc_0 + 2571 pi_d_a1_a7_proc_1 + 2598 pi_d_a7_a1_proc_3
      + 1306 pi_d_a7_a1_proc_0 + 2598 pi_d_a7_a1_proc_1 - 13 pi_d_a1_a8_proc_2
      + 2571 pi_d_a1_a8_proc_0 + 2571 pi_d_a1_a8_proc_1 + 14 pi_d_a8_a1_proc_2
      + 2598 pi_d_a8_a1_proc_0 + 2598 pi_d_a8_a1_proc_1 + 1306 pi_d_a1_a9_proc_2
      + 2598 pi_d_a1_a9_proc_3 + 2598 pi_d_a1_a9_proc_0 + 1306 pi_d_a1_a9_proc_1
      + 1279 pi_d_a9_a1_proc_2 + 2571 pi_d_a9_a1_proc_3 + 2571 pi_d_a9_a1_proc_0
      + 1279 pi_d_a9_a1_proc_1 + 2598 pi_d_a2_a3_proc_2 + 1306 pi_d_a2_a3_proc_3
      + 2598 pi_d_a2_a3_proc_0 + 1306 pi_d_a2_a3_proc_1 + 2571 pi_d_a3_a2_proc_2
      + 1279 pi_d_a3_a2_proc_3 + 2571 pi_d_a3_a2_proc_0 + 1279 pi_d_a3_a2_proc_1
      + 2598 pi_d_a2_a4_proc_2 + 2598 pi_d_a2_a4_proc_0 + 1306 pi_d_a2_a4_proc_1
      + 2571 pi_d_a4_a2_proc_2 + 2571 pi_d_a4_a2_proc_0 + 1279 pi_d_a4_a2_proc_1
      + 2584 pi_d_a2_a5_proc_2 + 2584 pi_d_a2_a5_proc_0 + 2584 pi_d_a2_a5_proc_1
      + 2585 pi_d_a5_a2_proc_2 + pi_d_a5_a2_proc_3 + 2585 pi_d_a5_a2_proc_0
      + 2585 pi_d_a5_a2_proc_1 + 2584 pi_d_a2_a6_proc_2 + 2584 pi_d_a2_a6_proc_0
      + 2584 pi_d_a2_a6_proc_1 + 2585 pi_d_a6_a2_proc_2 + pi_d_a6_a2_proc_3
      + 2585 pi_d_a6_a2_proc_0 + 2585 pi_d_a6_a2_proc_1 + 1279 pi_d_a2_a7_proc_3
      + 1279 pi_d_a2_a7_proc_0 + 2571 pi_d_a2_a7_proc_1 + 1306 pi_d_a7_a2_proc_3
      + 1306 pi_d_a7_a2_proc_0 + 2598 pi_d_a7_a2_proc_1 + 1306 pi_d_a2_a8_proc_2
      + 2598 pi_d_a2_a8_proc_0 + 2598 pi_d_a2_a8_proc_1 + 1279 pi_d_a8_a2_proc_2
      + 2571 pi_d_a8_a2_proc_0 + 2571 pi_d_a8_a2_proc_1 + 2598 pi_d_a2_a9_proc_2
      + 1306 pi_d_a2_a9_proc_3 + 2598 pi_d_a2_a9_proc_0 + 1306 pi_d_a2_a9_proc_1
      + 2571 pi_d_a9_a2_proc_2 + 1279 pi_d_a9_a2_proc_3 + 2571 pi_d_a9_a2_proc_0
      + 1279 pi_d_a9_a2_proc_1 + 2584 pi_d_a3_a4_proc_2 + 2584 pi_d_a3_a4_proc_0
      + 2585 pi_d_a4_a3_proc_2 + 2585 pi_d_a4_a3_proc_0 + pi_d_a4_a3_proc_1
      + 2571 pi_d_a3_a5_proc_2 + 1279 pi_d_a3_a5_proc_3 + 2571 pi_d_a3_a5_proc_0
      + 1279 pi_d_a3_a5_proc_1 + 2598 pi_d_a5_a3_proc_2 + 1306 pi_d_a5_a3_proc_3
      + 2598 pi_d_a5_a3_proc_0 + 1306 pi_d_a5_a3_proc_1 + 2571 pi_d_a3_a6_proc_2
      + 1279 pi_d_a3_a6_proc_3 + 2571 pi_d_a3_a6_proc_0 + 1279 pi_d_a3_a6_proc_1
      + 2598 pi_d_a6_a3_proc_2 + 1306 pi_d_a6_a3_proc_3 + 2598 pi_d_a6_a3_proc_0
      + 1306 pi_d_a6_a3_proc_1 + 2571 pi_d_a3_a7_proc_3 + 1279 pi_d_a3_a7_proc_0
      + 1279 pi_d_a3_a7_proc_1 + 2598 pi_d_a7_a3_proc_3 + 1306 pi_d_a7_a3_proc_0
      + 1306 pi_d_a7_a3_proc_1 + 1279 pi_d_a3_a8_proc_2 + 2571 pi_d_a3_a8_proc_0
      + 1279 pi_d_a3_a8_proc_1 + 1306 pi_d_a8_a3_proc_2 + 2598 pi_d_a8_a3_proc_0
      + 1306 pi_d_a8_a3_proc_1 + 2584 pi_d_a3_a9_proc_2 + 2584 pi_d_a3_a9_proc_3
      + 2584 pi_d_a3_a9_proc_0 + 2585 pi_d_a9_a3_proc_2 + 2585 pi_d_a9_a3_proc_3
      + 2585 pi_d_a9_a3_proc_0 + pi_d_a9_a3_proc_1 + 2571 pi_d_a4_a5_proc_2
      + 2571 pi_d_a4_a5_proc_0 + 1279 pi_d_a4_a5_proc_1 + 2598 pi_d_a5_a4_proc_2
      + 2598 pi_d_a5_a4_proc_0 + 1306 pi_d_a5_a4_proc_1 + 2598 pi_d_a4_a6_proc_2
      + 2598 pi_d_a4_a6_proc_0 + 1306 pi_d_a4_a6_proc_1 + 2571 pi_d_a6_a4_proc_2
      + 2571 pi_d_a6_a4_proc_0 + 1279 pi_d_a6_a4_proc_1 + 1279 pi_d_a4_a7_proc_0
      + 1279 pi_d_a4_a7_proc_1 + 1306 pi_d_a7_a4_proc_0 + 1306 pi_d_a7_a4_proc_1
      + 1306 pi_d_a4_a8_proc_2 + 2598 pi_d_a4_a8_proc_0 + 1306 pi_d_a4_a8_proc_1
      + 1279 pi_d_a8_a4_proc_2 + 2571 pi_d_a8_a4_proc_0 + 1279 pi_d_a8_a4_proc_1
      + 2584 pi_d_a4_a9_proc_2 + 2584 pi_d_a4_a9_proc_0 + 2585 pi_d_a9_a4_proc_2
      + 2585 pi_d_a9_a4_proc_0 + pi_d_a9_a4_proc_1 + 2584 pi_d_a5_a6_proc_2
      + 2584 pi_d_a5_a6_proc_0 + 2584 pi_d_a5_a6_proc_1 + 2585 pi_d_a6_a5_proc_2
      + pi_d_a6_a5_proc_3 + 2585 pi_d_a6_a5_proc_0 + 2585 pi_d_a6_a5_proc_1
      + 1306 pi_d_a5_a7_proc_3 + 1306 pi_d_a5_a7_proc_0 + 2598 pi_d_a5_a7_proc_1
      + 1279 pi_d_a7_a5_proc_3 + 1279 pi_d_a7_a5_proc_0 + 2571 pi_d_a7_a5_proc_1
      + 1306 pi_d_a5_a8_proc_2 + 2598 pi_d_a5_a8_proc_0 + 2598 pi_d_a5_a8_proc_1
      + 1279 pi_d_a8_a5_proc_2 + 2571 pi_d_a8_a5_proc_0 + 2571 pi_d_a8_a5_proc_1
      + 2598 pi_d_a5_a9_proc_2 + 1306 pi_d_a5_a9_proc_3 + 2598 pi_d_a5_a9_proc_0
      + 1306 pi_d_a5_a9_proc_1 + 2571 pi_d_a9_a5_proc_2 + 1279 pi_d_a9_a5_proc_3
      + 2571 pi_d_a9_a5_proc_0 + 1279 pi_d_a9_a5_proc_1 + 1306 pi_d_a6_a7_proc_3
      + 1306 pi_d_a6_a7_proc_0 + 2598 pi_d_a6_a7_proc_1 + 1279 pi_d_a7_a6_proc_3
      + 1279 pi_d_a7_a6_proc_0 + 2571 pi_d_a7_a6_proc_1 + 1306 pi_d_a6_a8_proc_2
      + 2598 pi_d_a6_a8_proc_0 + 2598 pi_d_a6_a8_proc_1 + 1279 pi_d_a8_a6_proc_2
      + 2571 pi_d_a8_a6_proc_0 + 2571 pi_d_a8_a6_proc_1 + 2598 pi_d_a6_a9_proc_2
      + 1306 pi_d_a6_a9_proc_3 + 2598 pi_d_a6_a9_proc_0 + 1306 pi_d_a6_a9_proc_1
      + 2571 pi_d_a9_a6_proc_2 + 1279 pi_d_a9_a6_proc_3 + 2571 pi_d_a9_a6_proc_0
      + 1279 pi_d_a9_a6_proc_1 + 1279 pi_d_a7_a8_proc_0 + 2571 pi_d_a7_a8_proc_1
      + 1306 pi_d_a8_a7_proc_0 + 2598 pi_d_a8_a7_proc_1 + 2598 pi_d_a7_a9_proc_3
      + 1306 pi_d_a7_a9_proc_0 + 1306 pi_d_a7_a9_proc_1 + 2571 pi_d_a9_a7_proc_3
      + 1279 pi_d_a9_a7_proc_0 + 1279 pi_d_a9_a7_proc_1 + 1279 pi_d_a8_a9_proc_2
      + 2571 pi_d_a8_a9_proc_0 + 1279 pi_d_a8_a9_proc_1 + 1306 pi_d_a9_a8_proc_2
      + 2598 pi_d_a9_a8_proc_0 + 1306 pi_d_a9_a8_proc_1 + pi_y2_a0_proc_0
      + pi_y2_a1_proc_2 + pi_y2_a2_proc_3 + pi_y2_a3_proc_1 + pi_y2_a4_proc_1
      + pi_y2_a5_proc_3 + pi_y2_a6_proc_3 + pi_y2_a7_proc_0 + pi_y2_a8_proc_2
      + pi_y2_a9_proc_1
Subject To
 c1: pi_nr_a0 + pi_nr_a1 + pi_nr_a2 + pi_nr_a3 + pi_nr_a4 + pi_nr_a5 + pi_nr_a6
     + pi_nr_a7 + pi_nr_a8 + pi_nr_a9 - pi_y1_a0 - pi_y1_a1 - pi_y1_a2
     - pi_y1_a3 - pi_y1_a4 - pi_y1_a5 - pi_y1_a6 - pi_y1_a7 - pi_y1_a8
     - pi_y1_a9 >= 1
 c2: pi_p_a0_a1 - pi_p_a5_a0 + pi_d_a0_a1_proc_2 + pi_d_a0_a1_proc_3
     + pi_d_a0_a1_proc_0 - pi_d_a1_a0_proc_2 - pi_d_a1_a0_proc_3
     - pi_d_a1_a0_proc_0 + pi_d_a0_a2_proc_2 + pi_d_a0_a2_proc_3
     + pi_d_a0_a2_proc_0 - pi_d_a2_a0_proc_2 - pi_d_a2_a0_proc_3
     - pi_d_a2_a0_proc_0 + pi_d_a0_a3_proc_2 + pi_d_a0_a3_proc_3
     + pi_d_a0_a3_proc_0 - pi_d_a3_a0_proc_2 - pi_d_a3_a0_proc_3
     - pi_d_a3_a0_proc_0 + pi_d_a0_a4_proc_2 + pi_d_a0_a4_proc_0
     - pi_d_a4_a0_proc_2 - pi_d_a4_a0_proc_0 + pi_d_a0_a5_proc_2
     + pi_d_a0_a5_proc_3 + pi_d_a0_a5_proc_0 - pi_d_a5_a0_proc_2
     - pi_d_a5_a0_proc_3 - pi_d_a5_a0_proc_0 + pi_d_a0_a6_proc_2
     + pi_d_a0_a6_proc_3 + pi_d_a0_a6_proc_0 - pi_d_a6_a0_proc_2
     - pi_d_a6_a0_proc_3 - pi_d_a6_a0_proc_0 + pi_d_a0_a7_proc_3
     + pi_d_a0_a7_proc_0 - pi_d_a7_a0_proc_3 - pi_d_a7_a0_proc_0
     + pi_d_a0_a8_proc_2 + pi_d_a0_a8_proc_0 - pi_d_a8_a0_proc_2
     - pi_d_a8_a0_proc_0 + pi_d_a0_a9_proc_2 + pi_d_a0_a9_proc_3
     + pi_d_a0_a9_proc_0 - pi_d_a9_a0_proc_2 - pi_d_a9_a0_proc_3
     - pi_d_a9_a0_proc_0 >= 0
 c3: 1001 pi_p_a0_a1 + 1001 pi_d_a0_a1_proc_0 + 1001 pi_d_a0_a2_proc_0
     + 1001 pi_d_a0_a3_proc_0 + 1001 pi_d_a0_a4_proc_0 + 1001 pi_d_a0_a5_proc_0
     + 1001 pi_d_a0_a6_proc_0 + 1001 pi_d_a0_a7_proc_0 + 1001 pi_d_a0_a8_proc_0
     + 1001 pi_d_a0_a9_proc_0 + pi_y1_a0 + pi_y2_a0_proc_0 >= 0
 c4: 898 pi_p_a0_a1 + 898 pi_d_a0_a1_proc_2 + 898 pi_d_a0_a2_proc_2
     + 898 pi_d_a0_a3_proc_2 + 898 pi_d_a0_a4_proc_2 + 898 pi_d_a0_a5_proc_2
     + 898 pi_d_a0_a6_proc_2 + 898 pi_d_a0_a8_proc_2 + 898 pi_d_a0_a9_proc_2
     + pi_y1_a0 + pi_y2_a0_proc_2 >= 0
 c5: 1070 pi_p_a0_a1 + 1070 pi_d_a0_a1_proc_3 + 1070 pi_d_a0_a2_proc_3
     + 1070 pi_d_a0_a3_proc_3 + 1070 pi_d_a0_a5_proc_3 + 1070 pi_d_a0_a6_proc_3
     + 1070 pi_d_a0_a7_proc_3 + 1070 pi_d_a0_a9_proc_3 + pi_y1_a0
     + pi_y2_a0_proc_3 >= 0
 c6: - pi_p_a0_a1 + pi_p_a1_a2 + pi_p_a1_a3 - pi_d_a0_a1_proc_2
     - pi_d_a0_a1_proc_3 - pi_d_a0_a1_proc_0 + pi_d_a1_a0_proc_2
     + pi_d_a1_a0_proc_3 + pi_d_a1_a0_proc_0 + pi_d_a1_a2_proc_2
     + pi_d_a1_a2_proc_3 + pi_d_a1_a2_proc_0 + pi_d_a1_a2_proc_1
     - pi_d_a2_a1_proc_2 - pi_d_a2_a1_proc_3 - pi_d_a2_a1_proc_0
     - pi_d_a2_a1_proc_1 + pi_d_a1_a3_proc_2 + pi_d_a1_a3_proc_3
     + pi_d_a1_a3_proc_0 + pi_d_a1_a3_proc_1 - pi_d_a3_a1_proc_2
     - pi_d_a3_a1_proc_3 - pi_d_a3_a1_proc_0 - pi_d_a3_a1_proc_1
     + pi_d_a1_a4_proc_2 + pi_d_a1_a4_proc_0 + pi_d_a1_a4_proc_1
     - pi_d_a4_a1_proc_2 - pi_d_a4_a1_proc_0 - pi_d_a4_a1_proc_1
     + pi_d_a1_a5_proc_2 + pi_d_a1_a5_proc_3 + pi_d_a1_a5_proc_0
     + pi_d_a1_a5_proc_1 - pi_d_a5_a1_proc_2 - pi_d_a5_a1_proc_3
     - pi_d_a5_a1_proc_0 - pi_d_a5_a1_proc_1 + pi_d_a1_a6_proc_2
     + pi_d_a1_a6_proc_3 + pi_d_a1_a6_proc_0 + pi_d_a1_a6_proc_1
     - pi_d_a6_a1_proc_2 - pi_d_a6_a1_proc_3 - pi_d_a6_a1_proc_0
     - pi_d_a6_a1_proc_1 + pi_d_a1_a7_proc_3 + pi_d_a1_a7_proc_0
     + pi_d_a1_a7_proc_1 - pi_d_a7_a1_proc_3 - pi_d_a7_a1_proc_0
     - pi_d_a7_a1_proc_1 + pi_d_a1_a8_proc_2 + pi_d_a1_a8_proc_0
     + pi_d_a1_a8_proc_1 - pi_d_a8_a1_proc_2 - pi_d_a8_a1_proc_0
     - pi_d_a8_a1_proc_1 + pi_d_a1_a9_proc_2 + pi_d_a1_a9_proc_3
     + pi_d_a1_a9_proc_0 + pi_d_a1_a9_proc_1 - pi_d_a9_a1_proc_2
     - pi_d_a9_a1_proc_3 - pi_d_a9_a1_proc_0 - pi_d_a9_a1_proc_1 >= 0
 c7: 1229 pi_p_a1_a2 + 1229 pi_p_a1_a3 + 1229 pi_d_a1_a0_proc_0
     + 1229 pi_d_a1_a2_proc_0 + 1229 pi_d_a1_a3_proc_0 + 1229 pi_d_a1_a4_proc_0
     + 1229 pi_d_a1_a5_proc_0 + 1229 pi_d_a1_a6_proc_0 + 1229 pi_d_a1_a7_proc_0
     + 1229 pi_d_a1_a8_proc_0 + 1229 pi_d_a1_a9_proc_0 + pi_y1_a1
     + pi_y2_a1_proc_0 >= 0
 c8: 799 pi_p_a1_a2 + 799 pi_p_a1_a3 + 799 pi_d_a1_a2_proc_1
     + 799 pi_d_a1_a3_proc_1 + 799 pi_d_a1_a4_proc_1 + 799 pi_d_a1_a5_proc_1
     + 799 pi_d_a1_a6_proc_1 + 799 pi_d_a1_a7_proc_1 + 799 pi_d_a1_a8_proc_1
     + 799 pi_d_a1_a9_proc_1 + pi_y1_a1 + pi_y2_a1_proc_1 >= 0
 c9: 1061 pi_p_a1_a2 + 1061 pi_p_a1_a3 + 1061 pi_d_a1_a0_proc_2
     + 1061 pi_d_a1_a2_proc_2 + 1061 pi_d_a1_a3_proc_2 + 1061 pi_d_a1_a4_proc_2
     + 1061 pi_d_a1_a5_proc_2 + 1061 pi_d_a1_a6_proc_2 + 1061 pi_d_a1_a8_proc_2
     + 1061 pi_d_a1_a9_proc_2 + pi_y1_a1 + pi_y2_a1_proc_2 >= 0
 c10: 1159 pi_p_a1_a2 + 1159 pi_p_a1_a3 + 1159 pi_d_a1_a0_proc_3
      + 1159 pi_d_a1_a2_proc_3 + 1159 pi_d_a1_a3_proc_3 + 1159 pi_d_a1_a5_proc_3
      + 1159 pi_d_a1_a6_proc_3 + 1159 pi_d_a1_a7_proc_3 + 1159 pi_d_a1_a9_proc_3
      + pi_y1_a1 + pi_y2_a1_proc_3 >= 0
 c11: - pi_p_a1_a2 - pi_p_a6_a2 + pi_p_a2_a6 - pi_d_a0_a2_proc_2
      - pi_d_a0_a2_proc_3 - pi_d_a0_a2_proc_0 + pi_d_a2_a0_proc_2
      + pi_d_a2_a0_proc_3 + pi_d_a2_a0_proc_0 - pi_d_a1_a2_proc_2
      - pi_d_a1_a2_proc_3 - pi_d_a1_a2_proc_0 - pi_d_a1_a2_proc_1
      + pi_d_a2_a1_proc_2 + pi_d_a2_a1_proc_3 + pi_d_a2_a1_proc_0
      + pi_d_a2_a1_proc_1 + pi_d_a2_a3_proc_2 + pi_d_a2_a3_proc_3
      + pi_d_a2_a3_proc_0 + pi_d_a2_a3_proc_1 - pi_d_a3_a2_proc_2
      - pi_d_a3_a2_proc_3 - pi_d_a3_a2_proc_0 - pi_d_a3_a2_proc_1
      + pi_d_a2_a4_proc_2 + pi_d_a2_a4_proc_0 + pi_d_a2_a4_proc_1
      - pi_d_a4_a2_proc_2 - pi_d_a4_a2_proc_0 - pi_d_a4_a2_proc_1
      + pi_d_a2_a5_proc_2 + pi_d_a2_a5_proc_3 + pi_d_a2_a5_proc_0
      + pi_d_a2_a5_proc_1 - pi_d_a5_a2_proc_2 - pi_d_a5_a2_proc_3
      - pi_d_a5_a2_proc_0 - pi_d_a5_a2_proc_1 + pi_d_a2_a6_proc_2
      + pi_d_a2_a6_proc_3 + pi_d_a2_a6_proc_0 + pi_d_a2_a6_proc_1
      - pi_d_a6_a2_proc_2 - pi_d_a6_a2_proc_3 - pi_d_a6_a2_proc_0
      - pi_d_a6_a2_proc_1 + pi_d_a2_a7_proc_3 + pi_d_a2_a7_proc_0
      + pi_d_a2_a7_proc_1 - pi_d_a7_a2_proc_3 - pi_d_a7_a2_proc_0
      - pi_d_a7_a2_proc_1 + pi_d_a2_a8_proc_2 + pi_d_a2_a8_proc_0
      + pi_d_a2_a8_proc_1 - pi_d_a8_a2_proc_2 - pi_d_a8_a2_proc_0
      - pi_d_a8_a2_proc_1 + pi_d_a2_a9_proc_2 + pi_d_a2_a9_proc_3
      + pi_d_a2_a9_proc_0 + pi_d_a2_a9_proc_1 - pi_d_a9_a2_proc_2
      - pi_d_a9_a2_proc_3 - pi_d_a9_a2_proc_0 - pi_d_a9_a2_proc_1 >= 0
 c12: 1255 pi_p_a2_a6 + 1255 pi_d_a2_a0_proc_0 + 1255 pi_d_a2_a1_proc_0
      + 1255 pi_d_a2_a3_proc_0 + 1255 pi_d_a2_a4_proc_0 + 1255 pi_d_a2_a5_proc_0
      + 1255 pi_d_a2_a6_proc_0 + 1255 pi_d_a2_a7_proc_0 + 1255 pi_d_a2_a8_proc_0
      + 1255 pi_d_a2_a9_proc_0 + pi_y1_a2 + pi_y2_a2_proc_0 >= 0
 c13: 456 pi_p_a2_a6 + 456 pi_d_a2_a1_proc_1 + 456 pi_d_a2_a3_proc_1
      + 456 pi_d_a2_a4_proc_1 + 456 pi_d_a2_a5_proc_1 + 456 pi_d_a2_a6_proc_1
      + 456 pi_d_a2_a7_proc_1 + 456 pi_d_a2_a8_proc_1 + 456 pi_d_a2_a9_proc_1
      + pi_y1_a2 + pi_y2_a2_proc_1 >= 0
 c14: 488 pi_p_a2_a6 + 488 pi_d_a2_a0_proc_2 + 488 pi_d_a2_a1_proc_2
      + 488 pi_d_a2_a3_proc_2 + 488 pi_d_a2_a4_proc_2 + 488 pi_d_a2_a5_proc_2
      + 488 pi_d_a2_a6_proc_2 + 488 pi_d_a2_a8_proc_2 + 488 pi_d_a2_a9_proc_2
      + pi_y1_a2 + pi_y2_a2_proc_2 >= 0
 c15: 517 pi_p_a2_a6 + 517 pi_d_a2_a0_proc_3 + 517 pi_d_a2_a1_proc_3
      + 517 pi_d_a2_a3_proc_3 + 517 pi_d_a2_a5_proc_3 + 517 pi_d_a2_a6_proc_3
      + 517 pi_d_a2_a7_proc_3 + 517 pi_d_a2_a9_proc_3 + pi_y1_a2
      + pi_y2_a2_proc_3 >= 0
 c16: - pi_p_a1_a3 + pi_p_a3_a4 + pi_p_a3_a9 - pi_d_a0_a3_proc_2
      - pi_d_a0_a3_proc_3 - pi_d_a0_a3_proc_0 + pi_d_a3_a0_proc_2
      + pi_d_a3_a0_proc_3 + pi_d_a3_a0_proc_0 - pi_d_a1_a3_proc_2
      - pi_d_a1_a3_proc_3 - pi_d_a1_a3_proc_0 - pi_d_a1_a3_proc_1
      + pi_d_a3_a1_proc_2 + pi_d_a3_a1_proc_3 + pi_d_a3_a1_proc_0
      + pi_d_a3_a1_proc_1 - pi_d_a2_a3_proc_2 - pi_d_a2_a3_proc_3
      - pi_d_a2_a3_proc_0 - pi_d_a2_a3_proc_1 + pi_d_a3_a2_proc_2
      + pi_d_a3_a2_proc_3 + pi_d_a3_a2_proc_0 + pi_d_a3_a2_proc_1
      + pi_d_a3_a4_proc_2 + pi_d_a3_a4_proc_0 + pi_d_a3_a4_proc_1
      - pi_d_a4_a3_proc_2 - pi_d_a4_a3_proc_0 - pi_d_a4_a3_proc_1
      + pi_d_a3_a5_proc_2 + pi_d_a3_a5_proc_3 + pi_d_a3_a5_proc_0
      + pi_d_a3_a5_proc_1 - pi_d_a5_a3_proc_2 - pi_d_a5_a3_proc_3
      - pi_d_a5_a3_proc_0 - pi_d_a5_a3_proc_1 + pi_d_a3_a6_proc_2
      + pi_d_a3_a6_proc_3 + pi_d_a3_a6_proc_0 + pi_d_a3_a6_proc_1
      - pi_d_a6_a3_proc_2 - pi_d_a6_a3_proc_3 - pi_d_a6_a3_proc_0
      - pi_d_a6_a3_proc_1 + pi_d_a3_a7_proc_3 + pi_d_a3_a7_proc_0
      + pi_d_a3_a7_proc_1 - pi_d_a7_a3_proc_3 - pi_d_a7_a3_proc_0
      - pi_d_a7_a3_proc_1 + pi_d_a3_a8_proc_2 + pi_d_a3_a8_proc_0
      + pi_d_a3_a8_proc_1 - pi_d_a8_a3_proc_2 - pi_d_a8_a3_proc_0
      - pi_d_a8_a3_proc_1 + pi_d_a3_a9_proc_2 + pi_d_a3_a9_proc_3
      + pi_d_a3_a9_proc_0 + pi_d_a3_a9_proc_1 - pi_d_a9_a3_proc_2
      - pi_d_a9_a3_proc_3 - pi_d_a9_a3_proc_0 - pi_d_a9_a3_proc_1 >= 0
 c17: 962 pi_p_a3_a4 + 962 pi_p_a3_a9 + 962 pi_d_a3_a0_proc_0
      + 962 pi_d_a3_a1_proc_0 + 962 pi_d_a3_a2_proc_0 + 962 pi_d_a3_a4_proc_0
      + 962 pi_d_a3_a5_proc_0 + 962 pi_d_a3_a6_proc_0 + 962 pi_d_a3_a7_proc_0
      + 962 pi_d_a3_a8_proc_0 + 962 pi_d_a3_a9_proc_0 + pi_y1_a3
      + pi_y2_a3_proc_0 >= 0
 c18: 786 pi_p_a3_a4 + 786 pi_p_a3_a9 + 786 pi_d_a3_a1_proc_1
      + 786 pi_d_a3_a2_proc_1 + 786 pi_d_a3_a4_proc_1 + 786 pi_d_a3_a5_proc_1
      + 786 pi_d_a3_a6_proc_1 + 786 pi_d_a3_a7_proc_1 + 786 pi_d_a3_a8_proc_1
      + 786 pi_d_a3_a9_proc_1 + pi_y1_a3 + pi_y2_a3_proc_1 >= 0
 c19: 1112 pi_p_a3_a4 + 1112 pi_p_a3_a9 + 1112 pi_d_a3_a0_proc_2
      + 1112 pi_d_a3_a1_proc_2 + 1112 pi_d_a3_a2_proc_2 + 1112 pi_d_a3_a4_proc_2
      + 1112 pi_d_a3_a5_proc_2 + 1112 pi_d_a3_a6_proc_2 + 1112 pi_d_a3_a8_proc_2
      + 1112 pi_d_a3_a9_proc_2 + pi_y1_a3 + pi_y2_a3_proc_2 >= 0
 c20: 908 pi_p_a3_a4 + 908 pi_p_a3_a9 + 908 pi_d_a3_a0_proc_3
      + 908 pi_d_a3_a1_proc_3 + 908 pi_d_a3_a2_proc_3 + 908 pi_d_a3_a5_proc_3
      + 908 pi_d_a3_a6_proc_3 + 908 pi_d_a3_a7_proc_3 + 908 pi_d_a3_a9_proc_3
      + pi_y1_a3 + pi_y2_a3_proc_3 >= 0
 c21: - pi_p_a3_a4 + pi_p_a4_a8 + pi_p_a4_a9 - pi_d_a0_a4_proc_2
      - pi_d_a0_a4_proc_0 + pi_d_a4_a0_proc_2 + pi_d_a4_a0_proc_0
      - pi_d_a1_a4_proc_2 - pi_d_a1_a4_proc_0 - pi_d_a1_a4_proc_1
      + pi_d_a4_a1_proc_2 + pi_d_a4_a1_proc_0 + pi_d_a4_a1_proc_1
      - pi_d_a2_a4_proc_2 - pi_d_a2_a4_proc_0 - pi_d_a2_a4_proc_1
      + pi_d_a4_a2_proc_2 + pi_d_a4_a2_proc_0 + pi_d_a4_a2_proc_1
      - pi_d_a3_a4_proc_2 - pi_d_a3_a4_proc_0 - pi_d_a3_a4_proc_1
      + pi_d_a4_a3_proc_2 + pi_d_a4_a3_proc_0 + pi_d_a4_a3_proc_1
      + pi_d_a4_a5_proc_2 + pi_d_a4_a5_proc_0 + pi_d_a4_a5_proc_1
      - pi_d_a5_a4_proc_2 - pi_d_a5_a4_proc_0 - pi_d_a5_a4_proc_1
      + pi_d_a4_a6_proc_2 + pi_d_a4_a6_proc_0 + pi_d_a4_a6_proc_1
      - pi_d_a6_a4_proc_2 - pi_d_a6_a4_proc_0 - pi_d_a6_a4_proc_1
      + pi_d_a4_a7_proc_0 + pi_d_a4_a7_proc_1 - pi_d_a7_a4_proc_0
      - pi_d_a7_a4_proc_1 + pi_d_a4_a8_proc_2 + pi_d_a4_a8_proc_0
      + pi_d_a4_a8_proc_1 - pi_d_a8_a4_proc_2 - pi_d_a8_a4_proc_0
      - pi_d_a8_a4_proc_1 + pi_d_a4_a9_proc_2 + pi_d_a4_a9_proc_0
      + pi_d_a4_a9_proc_1 - pi_d_a9_a4_proc_2 - pi_d_a9_a4_proc_0
      - pi_d_a9_a4_proc_1 >= 0
 c22: 965 pi_p_a4_a8 + 965 pi_p_a4_a9 + 965 pi_d_a4_a0_proc_0
      + 965 pi_d_a4_a1_proc_0 + 965 pi_d_a4_a2_proc_0 + 965 pi_d_a4_a3_proc_0
      + 965 pi_d_a4_a5_proc_0 + 965 pi_d_a4_a6_proc_0 + 965 pi_d_a4_a7_proc_0
      + 965 pi_d_a4_a8_proc_0 + 965 pi_d_a4_a9_proc_0 + pi_y1_a4
      + pi_y2_a4_proc_0 >= 0
 c23: 615 pi_p_a4_a8 + 615 pi_p_a4_a9 + 615 pi_d_a4_a1_proc_1
      + 615 pi_d_a4_a2_proc_1 + 615 pi_d_a4_a3_proc_1 + 615 pi_d_a4_a5_proc_1
      + 615 pi_d_a4_a6_proc_1 + 615 pi_d_a4_a7_proc_1 + 615 pi_d_a4_a8_proc_1
      + 615 pi_d_a4_a9_proc_1 + pi_y1_a4 + pi_y2_a4_proc_1 >= 0
 c24: 1181 pi_p_a4_a8 + 1181 pi_p_a4_a9 + 1181 pi_d_a4_a0_proc_2
      + 1181 pi_d_a4_a1_proc_2 + 1181 pi_d_a4_a2_proc_2 + 1181 pi_d_a4_a3_proc_2
      + 1181 pi_d_a4_a5_proc_2 + 1181 pi_d_a4_a6_proc_2 + 1181 pi_d_a4_a8_proc_2
      + 1181 pi_d_a4_a9_proc_2 + pi_y1_a4 + pi_y2_a4_proc_2 >= 0
 c25: pi_p_a5_a0 + pi_p_a5_a6 - pi_p_a9_a5 - pi_d_a0_a5_proc_2
      - pi_d_a0_a5_proc_3 - pi_d_a0_a5_proc_0 + pi_d_a5_a0_proc_2
      + pi_d_a5_a0_proc_3 + pi_d_a5_a0_proc_0 - pi_d_a1_a5_proc_2
      - pi_d_a1_a5_proc_3 - pi_d_a1_a5_proc_0 - pi_d_a1_a5_proc_1
      + pi_d_a5_a1_proc_2 + pi_d_a5_a1_proc_3 + pi_d_a5_a1_proc_0
      + pi_d_a5_a1_proc_1 - pi_d_a2_a5_proc_2 - pi_d_a2_a5_proc_3
      - pi_d_a2_a5_proc_0 - pi_d_a2_a5_proc_1 + pi_d_a5_a2_proc_2
      + pi_d_a5_a2_proc_3 + pi_d_a5_a2_proc_0 + pi_d_a5_a2_proc_1
      - pi_d_a3_a5_proc_2 - pi_d_a3_a5_proc_3 - pi_d_a3_a5_proc_0
      - pi_d_a3_a5_proc_1 + pi_d_a5_a3_proc_2 + pi_d_a5_a3_proc_3
      + pi_d_a5_a3_proc_0 + pi_d_a5_a3_proc_1 - pi_d_a4_a5_proc_2
      - pi_d_a4_a5_proc_0 - pi_d_a4_a5_proc_1 + pi_d_a5_a4_proc_2
      + pi_d_a5_a4_proc_0 + pi_d_a5_a4_proc_1 + pi_d_a5_a6_proc_2
      + pi_d_a5_a6_proc_3 + pi_d_a5_a6_proc_0 + pi_d_a5_a6_proc_1
      - pi_d_a6_a5_proc_2 - pi_d_a6_a5_proc_3 - pi_d_a6_a5_proc_0
      - pi_d_a6_a5_proc_1 + pi_d_a5_a7_proc_3 + pi_d_a5_a7_proc_0
      + pi_d_a5_a7_proc_1 - pi_d_a7_a5_proc_3 - pi_d_a7_a5_proc_0
      - pi_d_a7_a5_proc_1 + pi_d_a5_a8_proc_2 + pi_d_a5_a8_proc_0
      + pi_d_a5_a8_proc_1 - pi_d_a8_a5_proc_2 - pi_d_a8_a5_proc_0
      - pi_d_a8_a5_proc_1 + pi_d_a5_a9_proc_2 + pi_d_a5_a9_proc_3
      + pi_d_a5_a9_proc_0 + pi_d_a5_a9_proc_1 - pi_d_a9_a5_proc_2
      - pi_d_a9_a5_proc_3 - pi_d_a9_a5_proc_0 - pi_d_a9_a5_proc_1 >= 0
 c26: 676 pi_p_a5_a0 + 676 pi_p_a5_a6 + 676 pi_d_a5_a0_proc_0
      + 676 pi_d_a5_a1_proc_0 + 676 pi_d_a5_a2_proc_0 + 676 pi_d_a5_a3_proc_0
      + 676 pi_d_a5_a4_proc_0 + 676 pi_d_a5_a6_proc_0 + 676 pi_d_a5_a7_proc_0
      + 676 pi_d_a5_a8_proc_0 + 676 pi_d_a5_a9_proc_0 + pi_y1_a5
      + pi_y2_a5_proc_0 >= 0
 c27: 1122 pi_p_a5_a0 + 1122 pi_p_a5_a6 + 1122 pi_d_a5_a1_proc_1
      + 1122 pi_d_a5_a2_proc_1 + 1122 pi_d_a5_a3_proc_1 + 1122 pi_d_a5_a4_proc_1
      + 1122 pi_d_a5_a6_proc_1 + 1122 pi_d_a5_a7_proc_1 + 1122 pi_d_a5_a8_proc_1
      + 1122 pi_d_a5_a9_proc_1 + pi_y1_a5 + pi_y2_a5_proc_1 >= 0
 c28: 795 pi_p_a5_a0 + 795 pi_p_a5_a6 + 795 pi_d_a5_a0_proc_2
      + 795 pi_d_a5_a1_proc_2 + 795 pi_d_a5_a2_proc_2 + 795 pi_d_a5_a3_proc_2
      + 795 pi_d_a5_a4_proc_2 + 795 pi_d_a5_a6_proc_2 + 795 pi_d_a5_a8_proc_2
      + 795 pi_d_a5_a9_proc_2 + pi_y1_a5 + pi_y2_a5_proc_2 >= 0
 c29: 578 pi_p_a5_a0 + 578 pi_p_a5_a6 + 578 pi_d_a5_a0_proc_3
      + 578 pi_d_a5_a1_proc_3 + 578 pi_d_a5_a2_proc_3 + 578 pi_d_a5_a3_proc_3
      + 578 pi_d_a5_a6_proc_3 + 578 pi_d_a5_a7_proc_3 + 578 pi_d_a5_a9_proc_3
      + pi_y1_a5 + pi_y2_a5_proc_3 >= 0
 c30: - pi_p_a5_a6 - pi_p_a7_a6 + pi_p_a6_a2 + pi_p_a6_a9 - pi_p_a2_a6
      - pi_d_a0_a6_proc_2 - pi_d_a0_a6_proc_3 - pi_d_a0_a6_proc_0
      + pi_d_a6_a0_proc_2 + pi_d_a6_a0_proc_3 + pi_d_a6_a0_proc_0
      - pi_d_a1_a6_proc_2 - pi_d_a1_a6_proc_3 - pi_d_a1_a6_proc_0
      - pi_d_a1_a6_proc_1 + pi_d_a6_a1_proc_2 + pi_d_a6_a1_proc_3
      + pi_d_a6_a1_proc_0 + pi_d_a6_a1_proc_1 - pi_d_a2_a6_proc_2
      - pi_d_a2_a6_proc_3 - pi_d_a2_a6_proc_0 - pi_d_a2_a6_proc_1
      + pi_d_a6_a2_proc_2 + pi_d_a6_a2_proc_3 + pi_d_a6_a2_proc_0
      + pi_d_a6_a2_proc_1 - pi_d_a3_a6_proc_2 - pi_d_a3_a6_proc_3
      - pi_d_a3_a6_proc_0 - pi_d_a3_a6_proc_1 + pi_d_a6_a3_proc_2
      + pi_d_a6_a3_proc_3 + pi_d_a6_a3_proc_0 + pi_d_a6_a3_proc_1
      - pi_d_a4_a6_proc_2 - pi_d_a4_a6_proc_0 - pi_d_a4_a6_proc_1
      + pi_d_a6_a4_proc_2 + pi_d_a6_a4_proc_0 + pi_d_a6_a4_proc_1
      - pi_d_a5_a6_proc_2 - pi_d_a5_a6_proc_3 - pi_d_a5_a6_proc_0
      - pi_d_a5_a6_proc_1 + pi_d_a6_a5_proc_2 + pi_d_a6_a5_proc_3
      + pi_d_a6_a5_proc_0 + pi_d_a6_a5_proc_1 + pi_d_a6_a7_proc_3
      + pi_d_a6_a7_proc_0 + pi_d_a6_a7_proc_1 - pi_d_a7_a6_proc_3
      - pi_d_a7_a6_proc_0 - pi_d_a7_a6_proc_1 + pi_d_a6_a8_proc_2
      + pi_d_a6_a8_proc_0 + pi_d_a6_a8_proc_1 - pi_d_a8_a6_proc_2
      - pi_d_a8_a6_proc_0 - pi_d_a8_a6_proc_1 + pi_d_a6_a9_proc_2
      + pi_d_a6_a9_proc_3 + pi_d_a6_a9_proc_0 + pi_d_a6_a9_proc_1
      - pi_d_a9_a6_proc_2 - pi_d_a9_a6_proc_3 - pi_d_a9_a6_proc_0
      - pi_d_a9_a6_proc_1 >= 0
 c31: 982 pi_p_a6_a2 + 982 pi_p_a6_a9 + 982 pi_d_a6_a0_proc_0
      + 982 pi_d_a6_a1_proc_0 + 982 pi_d_a6_a2_proc_0 + 982 pi_d_a6_a3_proc_0
      + 982 pi_d_a6_a4_proc_0 + 982 pi_d_a6_a5_proc_0 + 982 pi_d_a6_a7_proc_0
      + 982 pi_d_a6_a8_proc_0 + 982 pi_d_a6_a9_proc_0 + pi_y1_a6
      + pi_y2_a6_proc_0 >= 0
 c32: 650 pi_p_a6_a2 + 650 pi_p_a6_a9 + 650 pi_d_a6_a1_proc_1
      + 650 pi_d_a6_a2_proc_1 + 650 pi_d_a6_a3_proc_1 + 650 pi_d_a6_a4_proc_1
      + 650 pi_d_a6_a5_proc_1 + 650 pi_d_a6_a7_proc_1 + 650 pi_d_a6_a8_proc_1
      + 650 pi_d_a6_a9_proc_1 + pi_y1_a6 + pi_y2_a6_proc_1 >= 0
 c33: 1062 pi_p_a6_a2 + 1062 pi_p_a6_a9 + 1062 pi_d_a6_a0_proc_2
      + 1062 pi_d_a6_a1_proc_2 + 1062 pi_d_a6_a2_proc_2 + 1062 pi_d_a6_a3_proc_2
      + 1062 pi_d_a6_a4_proc_2 + 1062 pi_d_a6_a5_proc_2 + 1062 pi_d_a6_a8_proc_2
      + 1062 pi_d_a6_a9_proc_2 + pi_y1_a6 + pi_y2_a6_proc_2 >= 0
 c34: 1061 pi_p_a6_a2 + 1061 pi_p_a6_a9 + 1061 pi_d_a6_a0_proc_3
      + 1061 pi_d_a6_a1_proc_3 + 1061 pi_d_a6_a2_proc_3 + 1061 pi_d_a6_a3_proc_3
      + 1061 pi_d_a6_a5_proc_3 + 1061 pi_d_a6_a7_proc_3 + 1061 pi_d_a6_a9_proc_3
      + pi_y1_a6 + pi_y2_a6_proc_3 >= 0
 c35: pi_p_a7_a6 - pi_d_a0_a7_proc_3 - pi_d_a0_a7_proc_0 + pi_d_a7_a0_proc_3
      + pi_d_a7_a0_proc_0 - pi_d_a1_a7_proc_3 - pi_d_a1_a7_proc_0
      - pi_d_a1_a7_proc_1 + pi_d_a7_a1_proc_3 + pi_d_a7_a1_proc_0
      + pi_d_a7_a1_proc_1 - pi_d_a2_a7_proc_3 - pi_d_a2_a7_proc_0
      - pi_d_a2_a7_proc_1 + pi_d_a7_a2_proc_3 + pi_d_a7_a2_proc_0
      + pi_d_a7_a2_proc_1 - pi_d_a3_a7_proc_3 - pi_d_a3_a7_proc_0
      - pi_d_a3_a7_proc_1 + pi_d_a7_a3_proc_3 + pi_d_a7_a3_proc_0
      + pi_d_a7_a3_proc_1 - pi_d_a4_a7_proc_0 - pi_d_a4_a7_proc_1
      + pi_d_a7_a4_proc_0 + pi_d_a7_a4_proc_1 - pi_d_a5_a7_proc_3
      - pi_d_a5_a7_proc_0 - pi_d_a5_a7_proc_1 + pi_d_a7_a5_proc_3
      + pi_d_a7_a5_proc_0 + pi_d_a7_a5_proc_1 - pi_d_a6_a7_proc_3
      - pi_d_a6_a7_proc_0 - pi_d_a6_a7_proc_1 + pi_d_a7_a6_proc_3
      + pi_d_a7_a6_proc_0 + pi_d_a7_a6_proc_1 + pi_d_a7_a8_proc_0
      + pi_d_a7_a8_proc_1 - pi_d_a8_a7_proc_0 - pi_d_a8_a7_proc_1
      + pi_d_a7_a9_proc_3 + pi_d_a7_a9_proc_0 + pi_d_a7_a9_proc_1
      - pi_d_a9_a7_proc_3 - pi_d_a9_a7_proc_0 - pi_d_a9_a7_proc_1 >= 0
 c36: 1232 pi_p_a7_a6 + 1232 pi_p_a7_a7 + 1232 pi_d_a7_a0_proc_0
      + 1232 pi_d_a7_a1_proc_0 + 1232 pi_d_a7_a2_proc_0 + 1232 pi_d_a7_a3_proc_0
      + 1232 pi_d_a7_a4_proc_0 + 1232 pi_d_a7_a5_proc_0 + 1232 pi_d_a7_a6_proc_0
      + 1232 pi_d_a7_a8_proc_0 + 1232 pi_d_a7_a9_proc_0 + pi_y1_a7
      + pi_y2_a7_proc_0 >= 0
 c37: 1232 pi_p_a7_a6 + 1232 pi_p_a7_a7 + 1232 pi_d_a7_a1_proc_1
      + 1232 pi_d_a7_a2_proc_1 + 1232 pi_d_a7_a3_proc_1 + 1232 pi_d_a7_a4_proc_1
      + 1232 pi_d_a7_a5_proc_1 + 1232 pi_d_a7_a6_proc_1 + 1232 pi_d_a7_a8_proc_1
      + 1232 pi_d_a7_a9_proc_1 + pi_y1_a7 + pi_y2_a7_proc_1 >= 0
 c38: 1277 pi_p_a7_a6 + 1277 pi_p_a7_a7 + 1277 pi_d_a7_a0_proc_3
      + 1277 pi_d_a7_a1_proc_3 + 1277 pi_d_a7_a2_proc_3 + 1277 pi_d_a7_a3_proc_3
      + 1277 pi_d_a7_a5_proc_3 + 1277 pi_d_a7_a6_proc_3 + 1277 pi_d_a7_a9_proc_3
      + pi_y1_a7 + pi_y2_a7_proc_3 >= 0
 c39: - pi_p_a4_a8 - pi_d_a0_a8_proc_2 - pi_d_a0_a8_proc_0 + pi_d_a8_a0_proc_2
      + pi_d_a8_a0_proc_0 - pi_d_a1_a8_proc_2 - pi_d_a1_a8_proc_0
      - pi_d_a1_a8_proc_1 + pi_d_a8_a1_proc_2 + pi_d_a8_a1_proc_0
      + pi_d_a8_a1_proc_1 - pi_d_a2_a8_proc_2 - pi_d_a2_a8_proc_0
      - pi_d_a2_a8_proc_1 + pi_d_a8_a2_proc_2 + pi_d_a8_a2_proc_0
      + pi_d_a8_a2_proc_1 - pi_d_a3_a8_proc_2 - pi_d_a3_a8_proc_0
      - pi_d_a3_a8_proc_1 + pi_d_a8_a3_proc_2 + pi_d_a8_a3_proc_0
      + pi_d_a8_a3_proc_1 - pi_d_a4_a8_proc_2 - pi_d_a4_a8_proc_0
      - pi_d_a4_a8_proc_1 + pi_d_a8_a4_proc_2 + pi_d_a8_a4_proc_0
      + pi_d_a8_a4_proc_1 - pi_d_a5_a8_proc_2 - pi_d_a5_a8_proc_0
      - pi_d_a5_a8_proc_1 + pi_d_a8_a5_proc_2 + pi_d_a8_a5_proc_0
      + pi_d_a8_a5_proc_1 - pi_d_a6_a8_proc_2 - pi_d_a6_a8_proc_0
      - pi_d_a6_a8_proc_1 + pi_d_a8_a6_proc_2 + pi_d_a8_a6_proc_0
      + pi_d_a8_a6_proc_1 - pi_d_a7_a8_proc_0 - pi_d_a7_a8_proc_1
      + pi_d_a8_a7_proc_0 + pi_d_a8_a7_proc_1 + pi_d_a8_a9_proc_2
      + pi_d_a8_a9_proc_0 + pi_d_a8_a9_proc_1 - pi_d_a9_a8_proc_2
      - pi_d_a9_a8_proc_0 - pi_d_a9_a8_proc_1 >= 0
 c40: 689 pi_d_a8_a0_proc_0 + 689 pi_d_a8_a1_proc_0 + 689 pi_d_a8_a2_proc_0
      + 689 pi_d_a8_a3_proc_0 + 689 pi_d_a8_a4_proc_0 + 689 pi_d_a8_a5_proc_0
      + 689 pi_d_a8_a6_proc_0 + 689 pi_d_a8_a7_proc_0 + 689 pi_d_a8_a9_proc_0
      + pi_y1_a8 + pi_y2_a8_proc_0 >= 0
 c41: 1292 pi_d_a8_a1_proc_1 + 1292 pi_d_a8_a2_proc_1 + 1292 pi_d_a8_a3_proc_1
      + 1292 pi_d_a8_a4_proc_1 + 1292 pi_d_a8_a5_proc_1 + 1292 pi_d_a8_a6_proc_1
      + 1292 pi_d_a8_a7_proc_1 + 1292 pi_d_a8_a9_proc_1 + pi_y1_a8
      + pi_y2_a8_proc_1 >= 0
 c42: 1203 pi_d_a8_a0_proc_2 + 1203 pi_d_a8_a1_proc_2 + 1203 pi_d_a8_a2_proc_2
      + 1203 pi_d_a8_a3_proc_2 + 1203 pi_d_a8_a4_proc_2 + 1203 pi_d_a8_a5_proc_2
      + 1203 pi_d_a8_a6_proc_2 + 1203 pi_d_a8_a9_proc_2 + pi_y1_a8
      + pi_y2_a8_proc_2 >= 0
 c43: - pi_p_a3_a9 + pi_p_a9_a5 - pi_p_a4_a9 - pi_p_a6_a9 - pi_d_a0_a9_proc_2
      - pi_d_a0_a9_proc_3 - pi_d_a0_a9_proc_0 + pi_d_a9_a0_proc_2
      + pi_d_a9_a0_proc_3 + pi_d_a9_a0_proc_0 - pi_d_a1_a9_proc_2
      - pi_d_a1_a9_proc_3 - pi_d_a1_a9_proc_0 - pi_d_a1_a9_proc_1
      + pi_d_a9_a1_proc_2 + pi_d_a9_a1_proc_3 + pi_d_a9_a1_proc_0
      + pi_d_a9_a1_proc_1 - pi_d_a2_a9_proc_2 - pi_d_a2_a9_proc_3
      - pi_d_a2_a9_proc_0 - pi_d_a2_a9_proc_1 + pi_d_a9_a2_proc_2
      + pi_d_a9_a2_proc_3 + pi_d_a9_a2_proc_0 + pi_d_a9_a2_proc_1
      - pi_d_a3_a9_proc_2 - pi_d_a3_a9_proc_3 - pi_d_a3_a9_proc_0
      - pi_d_a3_a9_proc_1 + pi_d_a9_a3_proc_2 + pi_d_a9_a3_proc_3
      + pi_d_a9_a3_proc_0 + pi_d_a9_a3_proc_1 - pi_d_a4_a9_proc_2
      - pi_d_a4_a9_proc_0 - pi_d_a4_a9_proc_1 + pi_d_a9_a4_proc_2
      + pi_d_a9_a4_proc_0 + pi_d_a9_a4_proc_1 - pi_d_a5_a9_proc_2
      - pi_d_a5_a9_proc_3 - pi_d_a5_a9_proc_0 - pi_d_a5_a9_proc_1
      + pi_d_a9_a5_proc_2 + pi_d_a9_a5_proc_3 + pi_d_a9_a5_proc_0
      + pi_d_a9_a5_proc_1 - pi_d_a6_a9_proc_2 - pi_d_a6_a9_proc_3
      - pi_d_a6_a9_proc_0 - pi_d_a6_a9_proc_1 + pi_d_a9_a6_proc_2
      + pi_d_a9_a6_proc_3 + pi_d_a9_a6_proc_0 + pi_d_a9_a6_proc_1
      - pi_d_a7_a9_proc_3 - pi_d_a7_a9_proc_0 - pi_d_a7_a9_proc_1
      + pi_d_a9_a7_proc_3 + pi_d_a9_a7_proc_0 + pi_d_a9_a7_proc_1
      - pi_d_a8_a9_proc_2 - pi_d_a8_a9_proc_0 - pi_d_a8_a9_proc_1
      + pi_d_a9_a8_proc_2 + pi_d_a9_a8_proc_0 + pi_d_a9_a8_proc_1 >= 0
 c44: 1248 pi_p_a9_a5 + 1248 pi_d_a9_a0_proc_0 + 1248 pi_d_a9_a1_proc_0
      + 1248 pi_d_a9_a2_proc_0 + 1248 pi_d_a9_a3_proc_0 + 1248 pi_d_a9_a4_proc_0
      + 1248 pi_d_a9_a5_proc_0 + 1248 pi_d_a9_a6_proc_0 + 1248 pi_d_a9_a7_proc_0
      + 1248 pi_d_a9_a8_proc_0 + pi_y1_a9 + pi_y2_a9_proc_0 >= 0
 c45: 640 pi_p_a9_a5 + 640 pi_d_a9_a1_proc_1 + 640 pi_d_a9_a2_proc_1
      + 640 pi_d_a9_a3_proc_1 + 640 pi_d_a9_a4_proc_1 + 640 pi_d_a9_a5_proc_1
      + 640 pi_d_a9_a6_proc_1 + 640 pi_d_a9_a7_proc_1 + 640 pi_d_a9_a8_proc_1
      + pi_y1_a9 + pi_y2_a9_proc_1 >= 0
 c46: 1022 pi_p_a9_a5 + 1022 pi_d_a9_a0_proc_2 + 1022 pi_d_a9_a1_proc_2
      + 1022 pi_d_a9_a2_proc_2 + 1022 pi_d_a9_a3_proc_2 + 1022 pi_d_a9_a4_proc_2
      + 1022 pi_d_a9_a5_proc_2 + 1022 pi_d_a9_a6_proc_2 + 1022 pi_d_a9_a8_proc_2
      + pi_y1_a9 + pi_y2_a9_proc_2 >= 0
 c47: 947 pi_p_a9_a5 + 947 pi_d_a9_a0_proc_3 + 947 pi_d_a9_a1_proc_3
      + 947 pi_d_a9_a2_proc_3 + 947 pi_d_a9_a3_proc_3 + 947 pi_d_a9_a5_proc_3
      + 947 pi_d_a9_a6_proc_3 + 947 pi_d_a9_a7_proc_3 + pi_y1_a9
      + pi_y2_a9_proc_3 >= 0

Bounds
       pi_y1_a0 Free
       pi_y1_a1 Free
       pi_y1_a2 Free
       pi_y1_a3 Free
       pi_y1_a4 Free
       pi_y1_a5 Free
       pi_y1_a6 Free
       pi_y1_a7 Free
       pi_y1_a8 Free
       pi_y1_a9 Free
End
