benchmark/results/graph__10-1000-0.10-04_1/graph__10-1000-0.10-04_1_QuintonOs_Benders_sub.txt
solution for: Quinton Bounded Benders_dual_sub
objective: 0.000427259
status: OPTIMAL_SOLUTION(2)
pi_p_a0_a1=0.000
pi_p_a1_a3=0.000
pi_p_a3_a4=0.000
pi_p_a5_a0=0.000
pi_p_a9_a5=0.000
pi_d_a4_a9_proc_1=0.000
pi_y1_a0=-0.214
pi_y1_a1=-0.227
pi_y1_a3=-0.168
pi_y1_a4=-0.131
pi_y1_a5=-0.123
pi_y1_a9=-0.137
pi_y2_a0_proc_2=0.022
pi_y2_a1_proc_1=0.056
pi_y2_a4_proc_0=0.131
pi_y2_a4_proc_2=0.131
